instances/knapsack/discrete/knapsack_140_9.lp
\ Model knapsack_140_9
\ LP format - for model browsing. Use MPS format to capture full model detail.
\ Signature: 0x9977cb8fbdb63468
Minimize
  - 8 x[0] - 24 x[1] - 34 x[2] - 2 x[3] - 47 x[4] - 43 x[5] - 99 x[6]
   - 25 x[7] - 80 x[8] - 16 x[9] - 93 x[10] - 25 x[11] - 53 x[12]
   - 16 x[13] - 25 x[14] - 46 x[15] - 40 x[16] - 96 x[17] - 96 x[18]
   - 3 x[19] - 63 x[20] - 21 x[21] - 94 x[22] - 22 x[23] - 95 x[24]
   - 56 x[25] - 38 x[26] - 33 x[27] - 16 x[28] - 10 x[29] - 47 x[30]
   - 66 x[31] - 14 x[32] - 33 x[33] - 33 x[34] - 55 x[35] - 23 x[36]
   - 49 x[37] - 32 x[38] - 25 x[39] - 58 x[40] - 15 x[41] - 51 x[42]
   - 65 x[43] - 56 x[44] - 73 x[45] - 42 x[46] - 58 x[47] - 46 x[48]
   - 15 x[49] - 9 x[50] - 52 x[51] - 53 x[52] - 63 x[53] - 70 x[54]
   - 20 x[55] - 4 x[56] - 78 x[57] - 30 x[58] - 53 x[59] - 2 x[60]
   - 32 x[61] - 19 x[62] - 15 x[63] - 68 x[64] - 47 x[65] - 3 x[66]
   - 91 x[67] - 2 x[68] - 23 x[69] - 39 x[70] - 33 x[71] - 47 x[72]
   - 83 x[73] - 4 x[74] - 8 x[75] - 60 x[76] - 47 x[77] - 66 x[78]
   - 33 x[79] - 29 x[80] - 64 x[81] - 75 x[82] - 64 x[83] - 55 x[84]
   - 86 x[85] - 64 x[86] - x[87] - 90 x[88] - 32 x[89] - 24 x[90]
   - 67 x[91] - 23 x[92] - 30 x[93] - 50 x[94] - 60 x[95] - 67 x[96]
   - 70 x[97] - 26 x[98] - 66 x[99] - 58 x[100] - 27 x[101] - 12 x[102]
   - 91 x[103] - 53 x[104] - 29 x[105] - 16 x[106] - 90 x[107] - 72 x[108]
   - 6 x[109] - 15 x[110] - 44 x[111] - 43 x[112] - 61 x[113] - 96 x[114]
   - 75 x[115] - 13 x[116] - 27 x[117] - 76 x[118] - 37 x[119] - 11 x[120]
   - 64 x[121] - 76 x[122] - 41 x[123] - 53 x[124] - 78 x[125] - 94 x[126]
   - 32 x[127] - 17 x[128] - 70 x[129] - 84 x[130] - 77 x[131] - 2 x[132]
   - 4 x[133] - 95 x[134] - 5 x[135] - 98 x[136] - 7 x[137] - 65 x[138]
   - 19 x[139]
Subject To
 primal_upper: 95 x[0] + 16 x[1] + 2 x[2] + 47 x[3] + 32 x[4] + 21 x[5]
   + 49 x[6] + 83 x[7] + 41 x[8] + 2 x[9] + 75 x[10] + 11 x[11] + 100 x[12]
   + 48 x[13] + 72 x[14] + 56 x[15] + 41 x[16] + 84 x[17] + 9 x[18]
   + 70 x[19] + 37 x[20] + 79 x[21] + 20 x[22] + 30 x[23] + 44 x[24]
   + 20 x[25] + 6 x[26] + 35 x[27] + 61 x[28] + 15 x[29] + 77 x[30]
   + 43 x[31] + 63 x[32] + 41 x[33] + 56 x[34] + 5 x[35] + 36 x[36]
   + 80 x[37] + 96 x[38] + 74 x[39] + 3 x[40] + 93 x[41] + 14 x[42]
   + 45 x[43] + 27 x[44] + 26 x[45] + 29 x[46] + 9 x[47] + 11 x[48]
   + 36 x[49] + 74 x[50] + 64 x[51] + 5 x[52] + 100 x[53] + 72 x[54]
   + 75 x[55] + 9 x[56] + 30 x[57] + 80 x[58] + 70 x[59] + 80 x[60]
   + 10 x[61] + 11 x[62] + 94 x[63] + 55 x[64] + 68 x[65] + 16 x[66]
   + 62 x[67] + 60 x[68] + 57 x[69] + 21 x[70] + 29 x[71] + 54 x[72]
   + 15 x[73] + 63 x[74] + 20 x[75] + 6 x[76] + 95 x[77] + 96 x[78]
   + 82 x[79] + 53 x[80] + 65 x[81] + 58 x[82] + 5 x[83] + 81 x[84]
   + 89 x[85] + 47 x[86] + 96 x[87] + 90 x[88] + 67 x[89] + 56 x[90]
   + 68 x[91] + 16 x[92] + 51 x[93] + 48 x[94] + 41 x[95] + 65 x[96]
   + 48 x[97] + 48 x[98] + 24 x[99] + 65 x[100] + 88 x[101] + 90 x[102]
   + 80 x[103] + 97 x[104] + 62 x[105] + 3 x[106] + 22 x[107] + 66 x[108]
   + 89 x[109] + 86 x[110] + 19 x[111] + 41 x[112] + 93 x[113] + 57 x[114]
   + 6 x[115] + 27 x[116] + 17 x[117] + 97 x[118] + 4 x[119] + 35 x[120]
   + 64 x[121] + 47 x[122] + 70 x[123] + 69 x[124] + 58 x[125] + 55 x[126]
   + 11 x[127] + 2 x[128] + 31 x[129] + 29 x[130] + 93 x[131] + 58 x[132]
   + 16 x[133] + 28 x[134] + 54 x[135] + 41 x[136] + 66 x[137] + 65 x[138]
   + 80 x[139] + 9.5 r[0] + 1.6 r[1] + 0.2 r[2] + 4.7 r[3] + 3.2 r[4]
   + 2.1 r[5] + 4.9 r[6] + 8.3 r[7] + 4.1 r[8] + 0.2 r[9] + 7.5 r[10]
   + 1.1 r[11] + 10 r[12] + 4.8 r[13] + 7.2 r[14] + 5.6 r[15] + 4.1 r[16]
   + 8.4 r[17] + 0.9 r[18] + 7 r[19] + 3.7 r[20] + 7.9 r[21] + 2 r[22]
   + 3 r[23] + 4.4 r[24] + 2 r[25] + 0.6 r[26] + 3.5 r[27] + 6.1 r[28]
   + 1.5 r[29] + 7.7 r[30] + 4.3 r[31] + 6.3 r[32] + 4.1 r[33] + 5.6 r[34]
   + 0.5 r[35] + 3.6 r[36] + 8 r[37] + 9.6 r[38] + 7.4 r[39] + 0.3 r[40]
   + 9.3 r[41] + 1.4 r[42] + 4.5 r[43] + 2.7 r[44] + 2.6 r[45] + 2.9 r[46]
   + 0.9 r[47] + 1.1 r[48] + 3.6 r[49] + 7.4 r[50] + 6.4 r[51] + 0.5 r[52]
   + 10 r[53] + 7.2 r[54] + 7.5 r[55] + 0.9 r[56] + 3 r[57] + 8 r[58]
   + 7 r[59] + 8 r[60] + r[61] + 1.1 r[62] + 9.4 r[63] + 5.5 r[64]
   + 6.8 r[65] + 1.6 r[66] + 6.2 r[67] + 6 r[68] + 5.7 r[69] + 2.1 r[70]
   + 2.9 r[71] + 5.4 r[72] + 1.5 r[73] + 6.3 r[74] + 2 r[75] + 0.6 r[76]
   + 9.5 r[77] + 9.6 r[78] + 8.2 r[79] + 5.3 r[80] + 6.5 r[81] + 5.8 r[82]
   + 0.5 r[83] + 8.1 r[84] + 8.9 r[85] + 4.7 r[86] + 9.6 r[87] + 9 r[88]
   + 6.7 r[89] + 5.6 r[90] + 6.8 r[91] + 1.6 r[92] + 5.1 r[93] + 4.8 r[94]
   + 4.1 r[95] + 6.5 r[96] + 4.8 r[97] + 4.8 r[98] + 2.4 r[99] + 6.5 r[100]
   + 8.8 r[101] + 9 r[102] + 8 r[103] + 9.7 r[104] + 6.2 r[105]
   + 0.3 r[106] + 2.2 r[107] + 6.6 r[108] + 8.9 r[109] + 8.6 r[110]
   + 1.9 r[111] + 4.1 r[112] + 9.3 r[113] + 5.7 r[114] + 0.6 r[115]
   + 2.7 r[116] + 1.7 r[117] + 9.7 r[118] + 0.4 r[119] + 3.5 r[120]
   + 6.4 r[121] + 4.7 r[122] + 7 r[123] + 6.9 r[124] + 5.8 r[125]
   + 5.5 r[126] + 1.1 r[127] + 0.2 r[128] + 3.1 r[129] + 2.9 r[130]
   + 9.3 r[131] + 5.8 r[132] + 1.6 r[133] + 2.8 r[134] + 5.4 r[135]
   + 4.1 r[136] + 6.6 r[137] + 6.5 r[138] + 8 r[139] <= 660
 primal_lower: 3.574938247396339 x[0] + 2.560327393000894 x[1]
   + 0.9900852987503246 x[2] + 3.907607227981886 x[3]
   + 2.665428376957121 x[4] + 3.377181458432405 x[5]
   + 0.7145521159695317 x[6] + 1.790054420301538 x[7]
   + 0.7752238275625807 x[8] + 1.476445106120587 x[9]
   + 0.4985549227786918 x[10] + 3.181823244454041 x[11]
   + 2.846625934207315 x[12] + 4.836940941166833 x[13]
   + 0.5338474862425493 x[14] + 3.764019539559392 x[15]
   + 0.8581139174837009 x[16] + 0.2561912259794475 x[17]
   + 2.296098134612385 x[18] + 0.8734547626524486 x[19]
   + 1.109615982808048 x[20] + 3.490446612801291 x[21]
   + 1.443443468218826 x[22] + 3.719847217249647 x[23]
   + 0.2265551315650617 x[24] + 3.419838209898945 x[25]
   + 2.218219547285289 x[26] + 3.348419832373088 x[27]
   + 2.248010521871559 x[28] + 4.164566814678741 x[29]
   + 4.284209589758982 x[30] + 2.239608103861334 x[31]
   + 4.864655462218798 x[32] + 4.766387804129733 x[33]
   + 0.6991498585844383 x[34] + 4.267650839128458 x[35]
   + 2.47940229659494 x[36] + 1.871417411590188 x[37]
   + 1.337554513502702 x[38] + 1.480746579206656 x[39]
   + 1.393301038365128 x[40] + 1.235265470592843 x[41]
   + 0.4893021382082327 x[42] + 1.008971870646861 x[43]
   + 3.211784099404156 x[44] + 2.563311995428888 x[45]
   + 3.354861449343914 x[46] + 2.391768797923116 x[47]
   + 0.3427078763482178 x[48] + 0.0143354260372581 x[49]
   + 1.54349211736119 x[50] + 1.861815970642364 x[51]
   + 0.3485259817713041 x[52] + 2.290183463665548 x[53]
   + 2.165893283175737 x[54] + 3.03005041336428 x[55]
   + 0.3756207226768911 x[56] + 2.22325006272334 x[57]
   + 4.143209168094283 x[58] + 0.1529834874722707 x[59]
   + 0.8798886426033566 x[60] + 4.308949156855912 x[61]
   + 0.1658158064089961 x[62] + 1.17405483923162 x[63]
   + 4.788673154650641 x[64] + 2.140007876123343 x[65]
   + 0.3938034168335043 x[66] + 3.530219827941806 x[67]
   + 2.25582058671869 x[68] + 2.999600493681268 x[69]
   + 4.327228024435723 x[70] + 3.478142867512668 x[71]
   + 3.923193223566621 x[72] + 1.240495673174965 x[73]
   + 4.51056767465144 x[74] + 3.260110132824225 x[75]
   + 3.352034741765913 x[76] + 2.338248316973389 x[77]
   + 2.90809300933351 x[78] + 3.250267907626919 x[79]
   + 2.593865955119747 x[80] + 4.327453239931945 x[81]
   + 2.637820790164609 x[82] + 1.285469711877969 x[83]
   + 0.1310900734515407 x[84] + 4.280398340246308 x[85]
   + 4.265198186809186 x[86] + 4.942806973740456 x[87]
   + 3.155582473918392 x[88] + 4.538240756268054 x[89]
   + 1.715009032395714 x[90] + 3.908626958395855 x[91]
   + 0.4110596210086252 x[92] + 1.637927264019342 x[93]
   + 4.146689355329648 x[94] + 3.721093098276248 x[95]
   + 1.114914541480413 x[96] + 1.972999289143551 x[97]
   + 3.555054180352323 x[98] + 1.610012967737861 x[99]
   + 3.171241271241893 x[100] + 2.036872467927893 x[101]
   + 0.7963398594959811 x[102] + 2.121749208184965 x[103]
   + 4.174024391950722 x[104] + 1.085588248704042 x[105]
   + 1.896994465650215 x[106] + 0.332967417843321 x[107]
   + 4.628044059485821 x[108] + 1.184464215454245 x[109]
   + 1.798287780632257 x[110] + 3.250341034171698 x[111]
   + 0.9203599780553835 x[112] + 4.357350801383419 x[113]
   + 3.52958429175267 x[114] + 1.997663883100371 x[115]
   + 0.2923641077247925 x[116] + 2.199829387115288 x[117]
   + 3.835552050574492 x[118] + 2.488871471536183 x[119]
   + 4.271649786071145 x[120] + 0.9192328690794757 x[121]
   + 4.37035016125168 x[122] + 4.283765593944146 x[123]
   + 1.083938172433029 x[124] + 0.5187046550111504 x[125]
   + 3.894861140447814 x[126] + 2.146759530405372 x[127]
   + 4.793626955198499 x[128] + 3.079821004032864 x[129]
   + 3.651160831867871 x[130] + 4.212873073513005 x[131]
   + 2.181508083746072 x[132] + 3.359634714292794 x[133]
   + 4.918090080444524 x[134] + 3.032556817123596 x[135]
   + 4.233992263009121 x[136] + 0.0891104488081109 x[137]
   + 4.554998952040068 x[138] + 4.391275714150999 x[139] + 46 u[0]
   + 22 u[1] + 72 u[2] + 33 u[3] + 66 u[4] + 8 u[5] + 11 u[6] + 26 u[7]
   + 47 u[8] + 56 u[9] + 58 u[10] + 17 u[11] + 62 u[12] + 62 u[13]
   + 71 u[14] + 67 u[15] + 87 u[16] + 82 u[17] + 75 u[18] + 92 u[19]
   + 3 u[20] + 10 u[21] + 86 u[22] + 93 u[23] + 3 u[24] + 50 u[25]
   + 56 u[26] + 2 u[27] + 64 u[28] + 85 u[29] + 32 u[30] + 58 u[31]
   + 18 u[32] + 23 u[33] + 62 u[34] + 55 u[35] + 14 u[36] + 67 u[37]
   + 2 u[38] + 13 u[39] + 93 u[40] + 16 u[41] + 32 u[42] + 76 u[43]
   + 73 u[44] + 85 u[45] + 84 u[46] + 88 u[47] + 61 u[48] + 54 u[49]
   + 53 u[50] + 98 u[51] + 83 u[52] + 46 u[53] + 87 u[54] + 38 u[55]
   + 59 u[56] + 81 u[57] + 30 u[58] + 28 u[59] + 3 u[60] + 17 u[61]
   + 26 u[62] + 69 u[63] + 50 u[64] + 10 u[65] + 23 u[66] + 61 u[67]
   + 58 u[68] + 28 u[69] + 36 u[70] + 88 u[71] + 36 u[72] + 89 u[73]
   + 54 u[74] + 99 u[75] + 49 u[76] + 93 u[77] + 67 u[78] + 65 u[79]
   + 4 u[80] + 96 u[81] + 61 u[82] + 84 u[83] + 72 u[84] + 60 u[85]
   + 90 u[86] + 22 u[87] + 60 u[88] + 37 u[89] + 15 u[90] + 51 u[91]
   + 47 u[92] + 58 u[93] + 18 u[94] + 47 u[95] + 55 u[96] + 43 u[97]
   + 50 u[98] + 70 u[99] + 35 u[100] + 38 u[101] + 24 u[102] + 22 u[103]
   + 75 u[104] + 56 u[105] + 29 u[106] + 89 u[107] + 9 u[108] + 23 u[109]
   + 85 u[110] + 17 u[111] + 67 u[112] + 95 u[113] + 55 u[114] + 13 u[115]
   + 5 u[116] + 55 u[117] + 55 u[118] + 75 u[119] + 10 u[120] + 59 u[121]
   + 70 u[122] + 9 u[123] + 67 u[124] + 45 u[125] + 90 u[126] + 58 u[127]
   + 57 u[128] + 49 u[129] + 84 u[130] + 71 u[131] + 81 u[132] + 50 u[133]
   + 95 u[134] + 48 u[135] + 83 u[136] + 81 u[137] + 88 u[138] + 6 u[139]
   <= 81918
 mccormick1[0]: - u[0] + r[0] <= 0
 mccormick1[1]: - u[1] + r[1] <= 0
 mccormick1[2]: - u[2] + r[2] <= 0
 mccormick1[3]: - u[3] + r[3] <= 0
 mccormick1[4]: - u[4] + r[4] <= 0
 mccormick1[5]: - u[5] + r[5] <= 0
 mccormick1[6]: - u[6] + r[6] <= 0
 mccormick1[7]: - u[7] + r[7] <= 0
 mccormick1[8]: - u[8] + r[8] <= 0
 mccormick1[9]: - u[9] + r[9] <= 0
 mccormick1[10]: - u[10] + r[10] <= 0
 mccormick1[11]: - u[11] + r[11] <= 0
 mccormick1[12]: - u[12] + r[12] <= 0
 mccormick1[13]: - u[13] + r[13] <= 0
 mccormick1[14]: - u[14] + r[14] <= 0
 mccormick1[15]: - u[15] + r[15] <= 0
 mccormick1[16]: - u[16] + r[16] <= 0
 mccormick1[17]: - u[17] + r[17] <= 0
 mccormick1[18]: - u[18] + r[18] <= 0
 mccormick1[19]: - u[19] + r[19] <= 0
 mccormick1[20]: - u[20] + r[20] <= 0
 mccormick1[21]: - u[21] + r[21] <= 0
 mccormick1[22]: - u[22] + r[22] <= 0
 mccormick1[23]: - u[23] + r[23] <= 0
 mccormick1[24]: - u[24] + r[24] <= 0
 mccormick1[25]: - u[25] + r[25] <= 0
 mccormick1[26]: - u[26] + r[26] <= 0
 mccormick1[27]: - u[27] + r[27] <= 0
 mccormick1[28]: - u[28] + r[28] <= 0
 mccormick1[29]: - u[29] + r[29] <= 0
 mccormick1[30]: - u[30] + r[30] <= 0
 mccormick1[31]: - u[31] + r[31] <= 0
 mccormick1[32]: - u[32] + r[32] <= 0
 mccormick1[33]: - u[33] + r[33] <= 0
 mccormick1[34]: - u[34] + r[34] <= 0
 mccormick1[35]: - u[35] + r[35] <= 0
 mccormick1[36]: - u[36] + r[36] <= 0
 mccormick1[37]: - u[37] + r[37] <= 0
 mccormick1[38]: - u[38] + r[38] <= 0
 mccormick1[39]: - u[39] + r[39] <= 0
 mccormick1[40]: - u[40] + r[40] <= 0
 mccormick1[41]: - u[41] + r[41] <= 0
 mccormick1[42]: - u[42] + r[42] <= 0
 mccormick1[43]: - u[43] + r[43] <= 0
 mccormick1[44]: - u[44] + r[44] <= 0
 mccormick1[45]: - u[45] + r[45] <= 0
 mccormick1[46]: - u[46] + r[46] <= 0
 mccormick1[47]: - u[47] + r[47] <= 0
 mccormick1[48]: - u[48] + r[48] <= 0
 mccormick1[49]: - u[49] + r[49] <= 0
 mccormick1[50]: - u[50] + r[50] <= 0
 mccormick1[51]: - u[51] + r[51] <= 0
 mccormick1[52]: - u[52] + r[52] <= 0
 mccormick1[53]: - u[53] + r[53] <= 0
 mccormick1[54]: - u[54] + r[54] <= 0
 mccormick1[55]: - u[55] + r[55] <= 0
 mccormick1[56]: - u[56] + r[56] <= 0
 mccormick1[57]: - u[57] + r[57] <= 0
 mccormick1[58]: - u[58] + r[58] <= 0
 mccormick1[59]: - u[59] + r[59] <= 0
 mccormick1[60]: - u[60] + r[60] <= 0
 mccormick1[61]: - u[61] + r[61] <= 0
 mccormick1[62]: - u[62] + r[62] <= 0
 mccormick1[63]: - u[63] + r[63] <= 0
 mccormick1[64]: - u[64] + r[64] <= 0
 mccormick1[65]: - u[65] + r[65] <= 0
 mccormick1[66]: - u[66] + r[66] <= 0
 mccormick1[67]: - u[67] + r[67] <= 0
 mccormick1[68]: - u[68] + r[68] <= 0
 mccormick1[69]: - u[69] + r[69] <= 0
 mccormick1[70]: - u[70] + r[70] <= 0
 mccormick1[71]: - u[71] + r[71] <= 0
 mccormick1[72]: - u[72] + r[72] <= 0
 mccormick1[73]: - u[73] + r[73] <= 0
 mccormick1[74]: - u[74] + r[74] <= 0
 mccormick1[75]: - u[75] + r[75] <= 0
 mccormick1[76]: - u[76] + r[76] <= 0
 mccormick1[77]: - u[77] + r[77] <= 0
 mccormick1[78]: - u[78] + r[78] <= 0
 mccormick1[79]: - u[79] + r[79] <= 0
 mccormick1[80]: - u[80] + r[80] <= 0
 mccormick1[81]: - u[81] + r[81] <= 0
 mccormick1[82]: - u[82] + r[82] <= 0
 mccormick1[83]: - u[83] + r[83] <= 0
 mccormick1[84]: - u[84] + r[84] <= 0
 mccormick1[85]: - u[85] + r[85] <= 0
 mccormick1[86]: - u[86] + r[86] <= 0
 mccormick1[87]: - u[87] + r[87] <= 0
 mccormick1[88]: - u[88] + r[88] <= 0
 mccormick1[89]: - u[89] + r[89] <= 0
 mccormick1[90]: - u[90] + r[90] <= 0
 mccormick1[91]: - u[91] + r[91] <= 0
 mccormick1[92]: - u[92] + r[92] <= 0
 mccormick1[93]: - u[93] + r[93] <= 0
 mccormick1[94]: - u[94] + r[94] <= 0
 mccormick1[95]: - u[95] + r[95] <= 0
 mccormick1[96]: - u[96] + r[96] <= 0
 mccormick1[97]: - u[97] + r[97] <= 0
 mccormick1[98]: - u[98] + r[98] <= 0
 mccormick1[99]: - u[99] + r[99] <= 0
 mccormick1[100]: - u[100] + r[100] <= 0
 mccormick1[101]: - u[101] + r[101] <= 0
 mccormick1[102]: - u[102] + r[102] <= 0
 mccormick1[103]: - u[103] + r[103] <= 0
 mccormick1[104]: - u[104] + r[104] <= 0
 mccormick1[105]: - u[105] + r[105] <= 0
 mccormick1[106]: - u[106] + r[106] <= 0
 mccormick1[107]: - u[107] + r[107] <= 0
 mccormick1[108]: - u[108] + r[108] <= 0
 mccormick1[109]: - u[109] + r[109] <= 0
 mccormick1[110]: - u[110] + r[110] <= 0
 mccormick1[111]: - u[111] + r[111] <= 0
 mccormick1[112]: - u[112] + r[112] <= 0
 mccormick1[113]: - u[113] + r[113] <= 0
 mccormick1[114]: - u[114] + r[114] <= 0
 mccormick1[115]: - u[115] + r[115] <= 0
 mccormick1[116]: - u[116] + r[116] <= 0
 mccormick1[117]: - u[117] + r[117] <= 0
 mccormick1[118]: - u[118] + r[118] <= 0
 mccormick1[119]: - u[119] + r[119] <= 0
 mccormick1[120]: - u[120] + r[120] <= 0
 mccormick1[121]: - u[121] + r[121] <= 0
 mccormick1[122]: - u[122] + r[122] <= 0
 mccormick1[123]: - u[123] + r[123] <= 0
 mccormick1[124]: - u[124] + r[124] <= 0
 mccormick1[125]: - u[125] + r[125] <= 0
 mccormick1[126]: - u[126] + r[126] <= 0
 mccormick1[127]: - u[127] + r[127] <= 0
 mccormick1[128]: - u[128] + r[128] <= 0
 mccormick1[129]: - u[129] + r[129] <= 0
 mccormick1[130]: - u[130] + r[130] <= 0
 mccormick1[131]: - u[131] + r[131] <= 0
 mccormick1[132]: - u[132] + r[132] <= 0
 mccormick1[133]: - u[133] + r[133] <= 0
 mccormick1[134]: - u[134] + r[134] <= 0
 mccormick1[135]: - u[135] + r[135] <= 0
 mccormick1[136]: - u[136] + r[136] <= 0
 mccormick1[137]: - u[137] + r[137] <= 0
 mccormick1[138]: - u[138] + r[138] <= 0
 mccormick1[139]: - u[139] + r[139] <= 0
 mccormick2[0]: - x[0] + r[0] <= 0
 mccormick2[1]: - x[1] + r[1] <= 0
 mccormick2[2]: - x[2] + r[2] <= 0
 mccormick2[3]: - x[3] + r[3] <= 0
 mccormick2[4]: - x[4] + r[4] <= 0
 mccormick2[5]: - x[5] + r[5] <= 0
 mccormick2[6]: - x[6] + r[6] <= 0
 mccormick2[7]: - x[7] + r[7] <= 0
 mccormick2[8]: - x[8] + r[8] <= 0
 mccormick2[9]: - x[9] + r[9] <= 0
 mccormick2[10]: - x[10] + r[10] <= 0
 mccormick2[11]: - x[11] + r[11] <= 0
 mccormick2[12]: - x[12] + r[12] <= 0
 mccormick2[13]: - x[13] + r[13] <= 0
 mccormick2[14]: - x[14] + r[14] <= 0
 mccormick2[15]: - x[15] + r[15] <= 0
 mccormick2[16]: - x[16] + r[16] <= 0
 mccormick2[17]: - x[17] + r[17] <= 0
 mccormick2[18]: - x[18] + r[18] <= 0
 mccormick2[19]: - x[19] + r[19] <= 0
 mccormick2[20]: - x[20] + r[20] <= 0
 mccormick2[21]: - x[21] + r[21] <= 0
 mccormick2[22]: - x[22] + r[22] <= 0
 mccormick2[23]: - x[23] + r[23] <= 0
 mccormick2[24]: - x[24] + r[24] <= 0
 mccormick2[25]: - x[25] + r[25] <= 0
 mccormick2[26]: - x[26] + r[26] <= 0
 mccormick2[27]: - x[27] + r[27] <= 0
 mccormick2[28]: - x[28] + r[28] <= 0
 mccormick2[29]: - x[29] + r[29] <= 0
 mccormick2[30]: - x[30] + r[30] <= 0
 mccormick2[31]: - x[31] + r[31] <= 0
 mccormick2[32]: - x[32] + r[32] <= 0
 mccormick2[33]: - x[33] + r[33] <= 0
 mccormick2[34]: - x[34] + r[34] <= 0
 mccormick2[35]: - x[35] + r[35] <= 0
 mccormick2[36]: - x[36] + r[36] <= 0
 mccormick2[37]: - x[37] + r[37] <= 0
 mccormick2[38]: - x[38] + r[38] <= 0
 mccormick2[39]: - x[39] + r[39] <= 0
 mccormick2[40]: - x[40] + r[40] <= 0
 mccormick2[41]: - x[41] + r[41] <= 0
 mccormick2[42]: - x[42] + r[42] <= 0
 mccormick2[43]: - x[43] + r[43] <= 0
 mccormick2[44]: - x[44] + r[44] <= 0
 mccormick2[45]: - x[45] + r[45] <= 0
 mccormick2[46]: - x[46] + r[46] <= 0
 mccormick2[47]: - x[47] + r[47] <= 0
 mccormick2[48]: - x[48] + r[48] <= 0
 mccormick2[49]: - x[49] + r[49] <= 0
 mccormick2[50]: - x[50] + r[50] <= 0
 mccormick2[51]: - x[51] + r[51] <= 0
 mccormick2[52]: - x[52] + r[52] <= 0
 mccormick2[53]: - x[53] + r[53] <= 0
 mccormick2[54]: - x[54] + r[54] <= 0
 mccormick2[55]: - x[55] + r[55] <= 0
 mccormick2[56]: - x[56] + r[56] <= 0
 mccormick2[57]: - x[57] + r[57] <= 0
 mccormick2[58]: - x[58] + r[58] <= 0
 mccormick2[59]: - x[59] + r[59] <= 0
 mccormick2[60]: - x[60] + r[60] <= 0
 mccormick2[61]: - x[61] + r[61] <= 0
 mccormick2[62]: - x[62] + r[62] <= 0
 mccormick2[63]: - x[63] + r[63] <= 0
 mccormick2[64]: - x[64] + r[64] <= 0
 mccormick2[65]: - x[65] + r[65] <= 0
 mccormick2[66]: - x[66] + r[66] <= 0
 mccormick2[67]: - x[67] + r[67] <= 0
 mccormick2[68]: - x[68] + r[68] <= 0
 mccormick2[69]: - x[69] + r[69] <= 0
 mccormick2[70]: - x[70] + r[70] <= 0
 mccormick2[71]: - x[71] + r[71] <= 0
 mccormick2[72]: - x[72] + r[72] <= 0
 mccormick2[73]: - x[73] + r[73] <= 0
 mccormick2[74]: - x[74] + r[74] <= 0
 mccormick2[75]: - x[75] + r[75] <= 0
 mccormick2[76]: - x[76] + r[76] <= 0
 mccormick2[77]: - x[77] + r[77] <= 0
 mccormick2[78]: - x[78] + r[78] <= 0
 mccormick2[79]: - x[79] + r[79] <= 0
 mccormick2[80]: - x[80] + r[80] <= 0
 mccormick2[81]: - x[81] + r[81] <= 0
 mccormick2[82]: - x[82] + r[82] <= 0
 mccormick2[83]: - x[83] + r[83] <= 0
 mccormick2[84]: - x[84] + r[84] <= 0
 mccormick2[85]: - x[85] + r[85] <= 0
 mccormick2[86]: - x[86] + r[86] <= 0
 mccormick2[87]: - x[87] + r[87] <= 0
 mccormick2[88]: - x[88] + r[88] <= 0
 mccormick2[89]: - x[89] + r[89] <= 0
 mccormick2[90]: - x[90] + r[90] <= 0
 mccormick2[91]: - x[91] + r[91] <= 0
 mccormick2[92]: - x[92] + r[92] <= 0
 mccormick2[93]: - x[93] + r[93] <= 0
 mccormick2[94]: - x[94] + r[94] <= 0
 mccormick2[95]: - x[95] + r[95] <= 0
 mccormick2[96]: - x[96] + r[96] <= 0
 mccormick2[97]: - x[97] + r[97] <= 0
 mccormick2[98]: - x[98] + r[98] <= 0
 mccormick2[99]: - x[99] + r[99] <= 0
 mccormick2[100]: - x[100] + r[100] <= 0
 mccormick2[101]: - x[101] + r[101] <= 0
 mccormick2[102]: - x[102] + r[102] <= 0
 mccormick2[103]: - x[103] + r[103] <= 0
 mccormick2[104]: - x[104] + r[104] <= 0
 mccormick2[105]: - x[105] + r[105] <= 0
 mccormick2[106]: - x[106] + r[106] <= 0
 mccormick2[107]: - x[107] + r[107] <= 0
 mccormick2[108]: - x[108] + r[108] <= 0
 mccormick2[109]: - x[109] + r[109] <= 0
 mccormick2[110]: - x[110] + r[110] <= 0
 mccormick2[111]: - x[111] + r[111] <= 0
 mccormick2[112]: - x[112] + r[112] <= 0
 mccormick2[113]: - x[113] + r[113] <= 0
 mccormick2[114]: - x[114] + r[114] <= 0
 mccormick2[115]: - x[115] + r[115] <= 0
 mccormick2[116]: - x[116] + r[116] <= 0
 mccormick2[117]: - x[117] + r[117] <= 0
 mccormick2[118]: - x[118] + r[118] <= 0
 mccormick2[119]: - x[119] + r[119] <= 0
 mccormick2[120]: - x[120] + r[120] <= 0
 mccormick2[121]: - x[121] + r[121] <= 0
 mccormick2[122]: - x[122] + r[122] <= 0
 mccormick2[123]: - x[123] + r[123] <= 0
 mccormick2[124]: - x[124] + r[124] <= 0
 mccormick2[125]: - x[125] + r[125] <= 0
 mccormick2[126]: - x[126] + r[126] <= 0
 mccormick2[127]: - x[127] + r[127] <= 0
 mccormick2[128]: - x[128] + r[128] <= 0
 mccormick2[129]: - x[129] + r[129] <= 0
 mccormick2[130]: - x[130] + r[130] <= 0
 mccormick2[131]: - x[131] + r[131] <= 0
 mccormick2[132]: - x[132] + r[132] <= 0
 mccormick2[133]: - x[133] + r[133] <= 0
 mccormick2[134]: - x[134] + r[134] <= 0
 mccormick2[135]: - x[135] + r[135] <= 0
 mccormick2[136]: - x[136] + r[136] <= 0
 mccormick2[137]: - x[137] + r[137] <= 0
 mccormick2[138]: - x[138] + r[138] <= 0
 mccormick2[139]: - x[139] + r[139] <= 0
 mccormick3[0]: x[0] + u[0] - r[0] <= 1
 mccormick3[1]: x[1] + u[1] - r[1] <= 1
 mccormick3[2]: x[2] + u[2] - r[2] <= 1
 mccormick3[3]: x[3] + u[3] - r[3] <= 1
 mccormick3[4]: x[4] + u[4] - r[4] <= 1
 mccormick3[5]: x[5] + u[5] - r[5] <= 1
 mccormick3[6]: x[6] + u[6] - r[6] <= 1
 mccormick3[7]: x[7] + u[7] - r[7] <= 1
 mccormick3[8]: x[8] + u[8] - r[8] <= 1
 mccormick3[9]: x[9] + u[9] - r[9] <= 1
 mccormick3[10]: x[10] + u[10] - r[10] <= 1
 mccormick3[11]: x[11] + u[11] - r[11] <= 1
 mccormick3[12]: x[12] + u[12] - r[12] <= 1
 mccormick3[13]: x[13] + u[13] - r[13] <= 1
 mccormick3[14]: x[14] + u[14] - r[14] <= 1
 mccormick3[15]: x[15] + u[15] - r[15] <= 1
 mccormick3[16]: x[16] + u[16] - r[16] <= 1
 mccormick3[17]: x[17] + u[17] - r[17] <= 1
 mccormick3[18]: x[18] + u[18] - r[18] <= 1
 mccormick3[19]: x[19] + u[19] - r[19] <= 1
 mccormick3[20]: x[20] + u[20] - r[20] <= 1
 mccormick3[21]: x[21] + u[21] - r[21] <= 1
 mccormick3[22]: x[22] + u[22] - r[22] <= 1
 mccormick3[23]: x[23] + u[23] - r[23] <= 1
 mccormick3[24]: x[24] + u[24] - r[24] <= 1
 mccormick3[25]: x[25] + u[25] - r[25] <= 1
 mccormick3[26]: x[26] + u[26] - r[26] <= 1
 mccormick3[27]: x[27] + u[27] - r[27] <= 1
 mccormick3[28]: x[28] + u[28] - r[28] <= 1
 mccormick3[29]: x[29] + u[29] - r[29] <= 1
 mccormick3[30]: x[30] + u[30] - r[30] <= 1
 mccormick3[31]: x[31] + u[31] - r[31] <= 1
 mccormick3[32]: x[32] + u[32] - r[32] <= 1
 mccormick3[33]: x[33] + u[33] - r[33] <= 1
 mccormick3[34]: x[34] + u[34] - r[34] <= 1
 mccormick3[35]: x[35] + u[35] - r[35] <= 1
 mccormick3[36]: x[36] + u[36] - r[36] <= 1
 mccormick3[37]: x[37] + u[37] - r[37] <= 1
 mccormick3[38]: x[38] + u[38] - r[38] <= 1
 mccormick3[39]: x[39] + u[39] - r[39] <= 1
 mccormick3[40]: x[40] + u[40] - r[40] <= 1
 mccormick3[41]: x[41] + u[41] - r[41] <= 1
 mccormick3[42]: x[42] + u[42] - r[42] <= 1
 mccormick3[43]: x[43] + u[43] - r[43] <= 1
 mccormick3[44]: x[44] + u[44] - r[44] <= 1
 mccormick3[45]: x[45] + u[45] - r[45] <= 1
 mccormick3[46]: x[46] + u[46] - r[46] <= 1
 mccormick3[47]: x[47] + u[47] - r[47] <= 1
 mccormick3[48]: x[48] + u[48] - r[48] <= 1
 mccormick3[49]: x[49] + u[49] - r[49] <= 1
 mccormick3[50]: x[50] + u[50] - r[50] <= 1
 mccormick3[51]: x[51] + u[51] - r[51] <= 1
 mccormick3[52]: x[52] + u[52] - r[52] <= 1
 mccormick3[53]: x[53] + u[53] - r[53] <= 1
 mccormick3[54]: x[54] + u[54] - r[54] <= 1
 mccormick3[55]: x[55] + u[55] - r[55] <= 1
 mccormick3[56]: x[56] + u[56] - r[56] <= 1
 mccormick3[57]: x[57] + u[57] - r[57] <= 1
 mccormick3[58]: x[58] + u[58] - r[58] <= 1
 mccormick3[59]: x[59] + u[59] - r[59] <= 1
 mccormick3[60]: x[60] + u[60] - r[60] <= 1
 mccormick3[61]: x[61] + u[61] - r[61] <= 1
 mccormick3[62]: x[62] + u[62] - r[62] <= 1
 mccormick3[63]: x[63] + u[63] - r[63] <= 1
 mccormick3[64]: x[64] + u[64] - r[64] <= 1
 mccormick3[65]: x[65] + u[65] - r[65] <= 1
 mccormick3[66]: x[66] + u[66] - r[66] <= 1
 mccormick3[67]: x[67] + u[67] - r[67] <= 1
 mccormick3[68]: x[68] + u[68] - r[68] <= 1
 mccormick3[69]: x[69] + u[69] - r[69] <= 1
 mccormick3[70]: x[70] + u[70] - r[70] <= 1
 mccormick3[71]: x[71] + u[71] - r[71] <= 1
 mccormick3[72]: x[72] + u[72] - r[72] <= 1
 mccormick3[73]: x[73] + u[73] - r[73] <= 1
 mccormick3[74]: x[74] + u[74] - r[74] <= 1
 mccormick3[75]: x[75] + u[75] - r[75] <= 1
 mccormick3[76]: x[76] + u[76] - r[76] <= 1
 mccormick3[77]: x[77] + u[77] - r[77] <= 1
 mccormick3[78]: x[78] + u[78] - r[78] <= 1
 mccormick3[79]: x[79] + u[79] - r[79] <= 1
 mccormick3[80]: x[80] + u[80] - r[80] <= 1
 mccormick3[81]: x[81] + u[81] - r[81] <= 1
 mccormick3[82]: x[82] + u[82] - r[82] <= 1
 mccormick3[83]: x[83] + u[83] - r[83] <= 1
 mccormick3[84]: x[84] + u[84] - r[84] <= 1
 mccormick3[85]: x[85] + u[85] - r[85] <= 1
 mccormick3[86]: x[86] + u[86] - r[86] <= 1
 mccormick3[87]: x[87] + u[87] - r[87] <= 1
 mccormick3[88]: x[88] + u[88] - r[88] <= 1
 mccormick3[89]: x[89] + u[89] - r[89] <= 1
 mccormick3[90]: x[90] + u[90] - r[90] <= 1
 mccormick3[91]: x[91] + u[91] - r[91] <= 1
 mccormick3[92]: x[92] + u[92] - r[92] <= 1
 mccormick3[93]: x[93] + u[93] - r[93] <= 1
 mccormick3[94]: x[94] + u[94] - r[94] <= 1
 mccormick3[95]: x[95] + u[95] - r[95] <= 1
 mccormick3[96]: x[96] + u[96] - r[96] <= 1
 mccormick3[97]: x[97] + u[97] - r[97] <= 1
 mccormick3[98]: x[98] + u[98] - r[98] <= 1
 mccormick3[99]: x[99] + u[99] - r[99] <= 1
 mccormick3[100]: x[100] + u[100] - r[100] <= 1
 mccormick3[101]: x[101] + u[101] - r[101] <= 1
 mccormick3[102]: x[102] + u[102] - r[102] <= 1
 mccormick3[103]: x[103] + u[103] - r[103] <= 1
 mccormick3[104]: x[104] + u[104] - r[104] <= 1
 mccormick3[105]: x[105] + u[105] - r[105] <= 1
 mccormick3[106]: x[106] + u[106] - r[106] <= 1
 mccormick3[107]: x[107] + u[107] - r[107] <= 1
 mccormick3[108]: x[108] + u[108] - r[108] <= 1
 mccormick3[109]: x[109] + u[109] - r[109] <= 1
 mccormick3[110]: x[110] + u[110] - r[110] <= 1
 mccormick3[111]: x[111] + u[111] - r[111] <= 1
 mccormick3[112]: x[112] + u[112] - r[112] <= 1
 mccormick3[113]: x[113] + u[113] - r[113] <= 1
 mccormick3[114]: x[114] + u[114] - r[114] <= 1
 mccormick3[115]: x[115] + u[115] - r[115] <= 1
 mccormick3[116]: x[116] + u[116] - r[116] <= 1
 mccormick3[117]: x[117] + u[117] - r[117] <= 1
 mccormick3[118]: x[118] + u[118] - r[118] <= 1
 mccormick3[119]: x[119] + u[119] - r[119] <= 1
 mccormick3[120]: x[120] + u[120] - r[120] <= 1
 mccormick3[121]: x[121] + u[121] - r[121] <= 1
 mccormick3[122]: x[122] + u[122] - r[122] <= 1
 mccormick3[123]: x[123] + u[123] - r[123] <= 1
 mccormick3[124]: x[124] + u[124] - r[124] <= 1
 mccormick3[125]: x[125] + u[125] - r[125] <= 1
 mccormick3[126]: x[126] + u[126] - r[126] <= 1
 mccormick3[127]: x[127] + u[127] - r[127] <= 1
 mccormick3[128]: x[128] + u[128] - r[128] <= 1
 mccormick3[129]: x[129] + u[129] - r[129] <= 1
 mccormick3[130]: x[130] + u[130] - r[130] <= 1
 mccormick3[131]: x[131] + u[131] - r[131] <= 1
 mccormick3[132]: x[132] + u[132] - r[132] <= 1
 mccormick3[133]: x[133] + u[133] - r[133] <= 1
 mccormick3[134]: x[134] + u[134] - r[134] <= 1
 mccormick3[135]: x[135] + u[135] - r[135] <= 1
 mccormick3[136]: x[136] + u[136] - r[136] <= 1
 mccormick3[137]: x[137] + u[137] - r[137] <= 1
 mccormick3[138]: x[138] + u[138] - r[138] <= 1
 mccormick3[139]: x[139] + u[139] - r[139] <= 1
Bounds
Binaries
 x[0] x[1] x[2] x[3] x[4] x[5] x[6] x[7] x[8] x[9] x[10] x[11] x[12] x[13]
 x[14] x[15] x[16] x[17] x[18] x[19] x[20] x[21] x[22] x[23] x[24] x[25]
 x[26] x[27] x[28] x[29] x[30] x[31] x[32] x[33] x[34] x[35] x[36] x[37]
 x[38] x[39] x[40] x[41] x[42] x[43] x[44] x[45] x[46] x[47] x[48] x[49]
 x[50] x[51] x[52] x[53] x[54] x[55] x[56] x[57] x[58] x[59] x[60] x[61]
 x[62] x[63] x[64] x[65] x[66] x[67] x[68] x[69] x[70] x[71] x[72] x[73]
 x[74] x[75] x[76] x[77] x[78] x[79] x[80] x[81] x[82] x[83] x[84] x[85]
 x[86] x[87] x[88] x[89] x[90] x[91] x[92] x[93] x[94] x[95] x[96] x[97]
 x[98] x[99] x[100] x[101] x[102] x[103] x[104] x[105] x[106] x[107] x[108]
 x[109] x[110] x[111] x[112] x[113] x[114] x[115] x[116] x[117] x[118]
 x[119] x[120] x[121] x[122] x[123] x[124] x[125] x[126] x[127] x[128]
 x[129] x[130] x[131] x[132] x[133] x[134] x[135] x[136] x[137] x[138]
 x[139] u[0] u[1] u[2] u[3] u[4] u[5] u[6] u[7] u[8] u[9] u[10] u[11] u[12]
 u[13] u[14] u[15] u[16] u[17] u[18] u[19] u[20] u[21] u[22] u[23] u[24]
 u[25] u[26] u[27] u[28] u[29] u[30] u[31] u[32] u[33] u[34] u[35] u[36]
 u[37] u[38] u[39] u[40] u[41] u[42] u[43] u[44] u[45] u[46] u[47] u[48]
 u[49] u[50] u[51] u[52] u[53] u[54] u[55] u[56] u[57] u[58] u[59] u[60]
 u[61] u[62] u[63] u[64] u[65] u[66] u[67] u[68] u[69] u[70] u[71] u[72]
 u[73] u[74] u[75] u[76] u[77] u[78] u[79] u[80] u[81] u[82] u[83] u[84]
 u[85] u[86] u[87] u[88] u[89] u[90] u[91] u[92] u[93] u[94] u[95] u[96]
 u[97] u[98] u[99] u[100] u[101] u[102] u[103] u[104] u[105] u[106] u[107]
 u[108] u[109] u[110] u[111] u[112] u[113] u[114] u[115] u[116] u[117]
 u[118] u[119] u[120] u[121] u[122] u[123] u[124] u[125] u[126] u[127]
 u[128] u[129] u[130] u[131] u[132] u[133] u[134] u[135] u[136] u[137]
 u[138] u[139] r[0] r[1] r[2] r[3] r[4] r[5] r[6] r[7] r[8] r[9] r[10]
 r[11] r[12] r[13] r[14] r[15] r[16] r[17] r[18] r[19] r[20] r[21] r[22]
 r[23] r[24] r[25] r[26] r[27] r[28] r[29] r[30] r[31] r[32] r[33] r[34]
 r[35] r[36] r[37] r[38] r[39] r[40] r[41] r[42] r[43] r[44] r[45] r[46]
 r[47] r[48] r[49] r[50] r[51] r[52] r[53] r[54] r[55] r[56] r[57] r[58]
 r[59] r[60] r[61] r[62] r[63] r[64] r[65] r[66] r[67] r[68] r[69] r[70]
 r[71] r[72] r[73] r[74] r[75] r[76] r[77] r[78] r[79] r[80] r[81] r[82]
 r[83] r[84] r[85] r[86] r[87] r[88] r[89] r[90] r[91] r[92] r[93] r[94]
 r[95] r[96] r[97] r[98] r[99] r[100] r[101] r[102] r[103] r[104] r[105]
 r[106] r[107] r[108] r[109] r[110] r[111] r[112] r[113] r[114] r[115]
 r[116] r[117] r[118] r[119] r[120] r[121] r[122] r[123] r[124] r[125]
 r[126] r[127] r[128] r[129] r[130] r[131] r[132] r[133] r[134] r[135]
 r[136] r[137] r[138] r[139]
End
