instances/knapsack/discrete/knapsack_140_9.kp
40445
140
660

95 9.5 8
16 1.6 24
2 0.2 34
47 4.7 2
32 3.2 47
21 2.1 43
49 4.9 99
83 8.3 25
41 4.1 80
2 0.2 16
75 7.5 93
11 1.1 25
100 10.0 53
48 4.8 16
72 7.2 25
56 5.6 46
41 4.1 40
84 8.4 96
9 0.9 96
70 7.0 3
37 3.7 63
79 7.9 21
20 2.0 94
30 3.0 22
44 4.4 95
20 2.0 56
6 0.6 38
35 3.5 33
61 6.1 16
15 1.5 10
77 7.7 47
43 4.3 66
63 6.3 14
41 4.1 33
56 5.6 33
5 0.5 55
36 3.6 23
80 8.0 49
96 9.6 32
74 7.4 25
3 0.3 58
93 9.3 15
14 1.4 51
45 4.5 65
27 2.7 56
26 2.6 73
29 2.9 42
9 0.9 58
11 1.1 46
36 3.6 15
74 7.4 9
64 6.4 52
5 0.5 53
100 10.0 63
72 7.2 70
75 7.5 20
9 0.9 4
30 3.0 78
80 8.0 30
70 7.0 53
80 8.0 2
10 1.0 32
11 1.1 19
94 9.4 15
55 5.5 68
68 6.8 47
16 1.6 3
62 6.2 91
60 6.0 2
57 5.7 23
21 2.1 39
29 2.9 33
54 5.4 47
15 1.5 83
63 6.3 4
20 2.0 8
6 0.6 60
95 9.5 47
96 9.6 66
82 8.2 33
53 5.3 29
65 6.5 64
58 5.8 75
5 0.5 64
81 8.1 55
89 8.9 86
47 4.7 64
96 9.6 1
90 9.0 90
67 6.7 32
56 5.6 24
68 6.8 67
16 1.6 23
51 5.1 30
48 4.8 50
41 4.1 60
65 6.5 67
48 4.8 70
48 4.8 26
24 2.4 66
65 6.5 58
88 8.8 27
90 9.0 12
80 8.0 91
97 9.7 53
62 6.2 29
3 0.3 16
22 2.2 90
66 6.6 72
89 8.9 6
86 8.6 15
19 1.9 44
41 4.1 43
93 9.3 61
57 5.7 96
6 0.6 75
27 2.7 13
17 1.7 27
97 9.7 76
4 0.4 37
35 3.5 11
64 6.4 64
47 4.7 76
70 7.0 41
69 6.9 53
58 5.8 78
55 5.5 94
11 1.1 32
2 0.2 17
31 3.1 70
29 2.9 84
93 9.3 77
58 5.8 2
16 1.6 4
28 2.8 95
54 5.4 5
41 4.1 98
66 6.6 7
65 6.5 65
80 8.0 19

81918
695

[3.5749382473963394 2.5603273930008936 0.9900852987503246 3.907607227981886 2.6654283769571205 3.377181458432405 0.7145521159695317 1.7900544203015376 0.7752238275625807 1.4764451061205872 0.49855492277869184 3.181823244454041 2.846625934207315 4.836940941166833 0.5338474862425493 3.764019539559392 0.8581139174837009 0.2561912259794475 2.2960981346123845 0.8734547626524486 1.109615982808048 3.4904466128012905 1.443443468218826 3.7198472172496473 0.22655513156506174 3.419838209898945 2.2182195472852886 3.3484198323730876 2.248010521871559 4.164566814678741 4.284209589758982 2.2396081038613342 4.864655462218798 4.7663878041297325 0.6991498585844383 4.267650839128458 2.47940229659494 1.8714174115901885 1.3375545135027023 1.4807465792066563 1.3933010383651283 1.2352654705928428 0.48930213820823265 1.0089718706468611 3.211784099404156 2.563311995428888 3.3548614493439137 2.391768797923116 0.34270787634821775 0.014335426037258141 1.5434921173611904 1.861815970642364 0.3485259817713041 2.290183463665548 2.165893283175737 3.03005041336428 0.3756207226768911 2.22325006272334 4.143209168094283 0.1529834874722707 0.8798886426033566 4.308949156855912 0.16581580640899607 1.1740548392316204 4.788673154650641 2.140007876123343 0.3938034168335043 3.5302198279418064 2.2558205867186896 2.999600493681268 4.327228024435723 3.4781428675126675 3.923193223566621 1.2404956731749648 4.5105676746514405 3.260110132824225 3.3520347417659133 2.3382483169733894 2.90809300933351 3.2502679076269194 2.593865955119747 4.327453239931945 2.637820790164609 1.285469711877969 0.13109007345154072 4.280398340246308 4.265198186809186 4.942806973740456 3.155582473918392 4.538240756268054 1.715009032395714 3.9086269583958555 0.4110596210086252 1.6379272640193419 4.146689355329648 3.721093098276248 1.1149145414804134 1.9729992891435515 3.5550541803523235 1.610012967737861 3.1712412712418927 2.0368724679278927 0.7963398594959811 2.121749208184965 4.174024391950722 1.085588248704042 1.8969944656502153 0.33296741784332096 4.628044059485821 1.184464215454245 1.7982877806322568 3.250341034171698 0.9203599780553835 4.3573508013834195 3.52958429175267 1.997663883100371 0.2923641077247925 2.199829387115288 3.835552050574492 2.4888714715361826 4.271649786071145 0.9192328690794757 4.37035016125168 4.283765593944146 1.0839381724330295 0.5187046550111504 3.8948611404478144 2.1467595304053724 4.793626955198499 3.0798210040328637 3.6511608318678705 4.212873073513005 2.1815080837460723 3.3596347142927945 4.918090080444524 3.032556817123596 4.233992263009121 0.0891104488081109 4.554998952040068 4.391275714150999]

[46 22 72 33 66 8 11 26 47 56 58 17 62 62 71 67 87 82 75 92 3 10 86 93 3 50 56 2 64 85 32 58 18 23 62 55 14 67 2 13 93 16 32 76 73 85 84 88 61 54 53 98 83 46 87 38 59 81 30 28 3 17 26 69 50 10 23 61 58 28 36 88 36 89 54 99 49 93 67 65 4 96 61 84 72 60 90 22 60 37 15 51 47 58 18 47 55 43 50 70 35 38 24 22 75 56 29 89 9 23 85 17 67 95 55 13 5 55 55 75 10 59 70 9 67 45 90 58 57 49 84 71 81 50 95 48 83 81 88 6]
